$ 1 0.000005 19.867427341514983 75 5 43 5e-11
c 160 352 160 288 0 1.2000000000000002e-8 -10.000000000594852 -10
v 96 256 96 80 0 1 50 5.66 0 0 0.5
r 160 80 160 160 0 150000
r 160 176 160 256 0 48000
r 384 272 384 352 0 480000
r 384 176 384 256 0 480000
w 160 256 96 256 0
w 96 80 160 80 0
w 160 256 160 288 0
w 160 256 384 256 1
w 384 256 384 272 0
w 160 160 160 176 0
w 160 176 256 176 2
g 160 336 160 384 0 0
g 384 352 384 384 0 0
v 480 352 480 176 0 0 40 3.3 0 0 0.5
w 480 352 384 352 0
w 480 176 384 176 0
r 256 176 256 384 0 10000000
g 256 416 256 464 0 0
w 256 416 256 384 0
o 0 64 0 4099 20 0.00009765625 0 2 0 3
o 12 128 0 4355 5 0.00009765625 1 2 12 3
38 0 F1 0 1e-8 0.000009999999999999999 -1 Capacitance
